Maximize
  obj: -7 x0 +5 x1 -7 x2 -3 x3 +8 x4 -8 x5 +6 x6 +6 x7 -1 x8 -9 x9 +102 x10 -91 x11 -100 x12 +120 x13 -131 x14 +179 x15 +82 x16 -176 x17 -22 x18 +31 x19 
Subject to
  c1: +0 x0 +3 x1 +0 x2 +0 x3 +10 x4 +0 x5 +0 x6 +0 x7 +0 x8 +1 x9 +15 x10 <= 93
  c2: +0 x0 +0 x1 +0 x2 +9 x3 +0 x4 +0 x5 +0 x6 +9 x7 +0 x8 +0 x9 +3 x11 <= 66
  c3: +16 x0 +5 x1 +0 x2 +0 x3 +0 x4 +18 x5 +0 x6 +11 x7 +20 x8 +0 x9 +9 x12 <= 71
  c4: +20 x0 +0 x1 +0 x2 +6 x3 +0 x4 +18 x5 +10 x6 +0 x7 +0 x8 +10 x9 +12 x13 <= 58
  c5: +14 x0 +0 x1 +0 x2 +0 x3 +12 x4 +10 x5 +19 x6 +0 x7 +18 x8 +20 x9 +20 x14 <= 64
  c6: +0 x0 +2 x1 +0 x2 +0 x3 +19 x4 +0 x5 +13 x6 +2 x7 +0 x8 +14 x9 +9 x15 <= 80
  c7: +0 x0 +0 x1 +0 x2 +8 x3 -1 x4 +0 x5 +0 x6 +0 x7 +14 x8 +0 x9 +12 x16 <= 92
  c8: +0 x0 +15 x1 +0 x2 +4 x3 +0 x4 +0 x5 +0 x6 +0 x7 +2 x8 +0 x9 +18 x17 <= 94
  c9: +16 x0 +0 x1 +0 x2 +0 x3 +0 x4 +0 x5 +0 x6 -1 x7 +19 x8 +0 x9 +14 x18 <= 53
  c10: +1 x0 +8 x1 +0 x2 +5 x3 +5 x4 +16 x5 +0 x6 +0 x7 +0 x8 +0 x9 +13 x19 <= 65
  c11: +0 x0 +6 x1 +0 x2 +13 x3 +0 x4 +0 x5 +0 x6 +15 x7 +2 x8 +0 x9 <= 73
  c12: +0 x0 +0 x1 +0 x2 +13 x3 +8 x4 +0 x5 +0 x6 +2 x7 +11 x8 +13 x9 <= 85
  c13: +0 x0 +0 x1 +17 x2 +0 x3 +0 x4 +0 x5 +0 x6 +0 x7 +0 x8 +0 x9 <= 91
  c14: +0 x0 +0 x1 -1 x2 +14 x3 +0 x4 +0 x5 +0 x6 +0 x7 +0 x8 +13 x9 <= 71
  c15: +12 x0 +17 x1 +0 x2 +0 x3 +14 x4 +10 x5 +0 x6 +0 x7 +0 x8 +0 x9 <= 73
  c16: +9 x0 +20 x1 +16 x2 +0 x3 +0 x4 -1 x5 +7 x6 +12 x7 +8 x8 +13 x9 <= 73
  c17: +6 x0 +0 x1 +0 x2 +0 x3 +6 x4 +11 x5 +0 x6 +14 x7 +0 x8 +0 x9 <= 57
  c18: +18 x0 +12 x1 +8 x2 +0 x3 +0 x4 +0 x5 +19 x6 +0 x7 +2 x8 +0 x9 <= 68
  c19: +0 x0 -1 x1 +0 x2 +0 x3 +12 x4 +0 x5 +15 x6 +0 x7 +0 x8 +0 x9 <= 51
  c20: + x10 + x11 + x12 + x13 + x14 + x15 + x16 + x17 + x18 + x19 <= 3.333333
Binary
 x10
 x11
 x12
 x13
 x14
 x15
 x16
 x17
 x18
 x19
End
